SCIP version 5.0.0 [precision: 8 byte] [memory: block] [mode: optimized] [LP solver: NONE] [GitHash: 3bbd232]
Copyright (C) 2002-2017 Konrad-Zuse-Zentrum fuer Informationstechnik Berlin (ZIB)

External codes: 
  Readline EditLine w  GNU library for command line editing (gnu.org/s/readline)
  CppAD 20160000.1     Algorithmic Differentiation of C++ algorithms developed by B. Bell (www.coin-or.org/CppAD)
  ZLIB 1.2.5           General purpose compression library by J. Gailly and M. Adler (zlib.net)
  GMP 6.1.2            GNU Multiple Precision Arithmetic Library developed by T. Granlund (gmplib.org)

user parameter file <scip.set> not found - using default parameters

read problem <../../Split_data/output/spectf/4/4_sample_spectf.logreg>
============

File name	:	../../Split_data/output/spectf/4/4_sample_spectf.logreg
Problem name 	:	4_sample_spectf
Number of data	:	213
Number of var	:	44
The given data has linear independence

[dim=1] time: 0.008964
[dim=2] time: 0.017196
[dim=3] time: 0.024925
[dim=4] time: 0.031364
[dim=5] time: 0.038406
[dim=6] time: 0.045531
[dim=7] time: 0.052298
[dim=8] time: 0.059136
[dim=9] time: 0.065855
[dim=10] time: 0.072812
[dim=11] time: 0.08172
[dim=12] time: 0.087929
[dim=13] time: 0.094352
[dim=14] Time of forward = 0.100605sec.
AIC: 109.049
k: 13

[dim=44] time: 0.029111
[dim=43] time: 0.05485
[dim=42] time: 0.074045
[dim=41] time: 0.090027
[dim=40] time: 0.107095
[dim=39] time: 0.122335
[dim=38] time: 0.138398
[dim=37] time: 0.149413
[dim=36] time: 0.163189
[dim=35] time: 0.173433
[dim=34] time: 0.185868
[dim=33] time: 0.196109
[dim=32] time: 0.206526
[dim=31] time: 0.217387
[dim=30] time: 0.230669
[dim=29] time: 0.241967
[dim=28] time: 0.252478
[dim=27] time: 0.259721
[dim=26] time: 0.267419
[dim=25] time: 0.276665
[dim=24] time: 0.282695
[dim=23] time: 0.290467
[dim=22] time: 0.298283
[dim=21] time: 0.305271
[dim=20] time: 0.311808
[dim=19] time: 0.316717
[dim=18] Time of backward = 0.322799sec.
AIC: 109.721
k: 19
